<number of tasks>
20


<number of equipment>
5


<cycle time>
1000


<investment costs>
1,22856
2,24077
3,13486
4,7010
5,18875


<task times>
1,175,-1,206,-1,-1
2,306,225,-1,-1,349
3,-1,221,-1,454,322
4,-1,157,-1,477,281
5,364,-1,478,-1,-1
6,-1,204,-1,452,252
7,-1,217,-1,440,305
8,-1,220,-1,353,306
9,210,208,-1,-1,211
10,-1,188,-1,349,284
11,236,-1,273,-1,-1
12,-1,229,-1,439,292
13,-1,197,-1,352,297
14,238,227,-1,-1,288
15,248,230,-1,-1,306
16,-1,199,-1,428,259
17,259,277,-1,-1,365
18,237,187,-1,-1,285
19,243,232,-1,-1,257
20,-1,210,-1,475,304


<precedence relations>
1,4
2,6
3,5
3,7
3,8
4,11
5,9
6,10
7,11
8,11
9,13
10,12
11,13
11,14
12,15
13,15
13,16
14,16
14,17
15,20
16,18
16,19
17,18
17,19


<task types>
1,1
2,2
3,3
4,3
5,1
6,3
7,3
8,3
9,2
10,3
11,1
12,3
13,3
14,2
15,2
16,3
17,2
18,2
19,2
20,3


<line depot>
1,3
2,2
3,0
4,4
5,1


<processing costs>
1,14400
2,14400
3,7200
4,7200
5,14400


<saving costs>
1,2285
2,2407
3,1348
4,701
5,1887


<end>
